
Gurobi 9.5.2 (win64) logging started Mon Mar 27 20:26:44 2023

Set parameter LogFile to value "2023-03-27_20hr-25min-09sec/Nodes20_Arcs45_LocNodes15/Formulation-2Instance-3.log"
Set parameter TimeLimit to value 600
Set parameter IntFeasTol to value 1e-09
Set parameter DualReductions to value 0
Set parameter NonConvex to value 2
Gurobi Optimizer version 9.5.2 build v9.5.2rc0 (win64)
Thread count: 4 physical cores, 8 logical processors, using up to 8 threads
Optimize a model with 101 rows, 180 columns and 410 nonzeros
Model fingerprint: 0xe3d57a36
Model has 65 quadratic objective terms
Model has 65 SOS constraints
Variable types: 165 continuous, 15 integer (15 binary)
Coefficient statistics:
  Matrix range     [1e-01, 2e+02]
  Objective range  [4e-02, 1e+03]
  QObjective range [2e-01, 8e+00]
  Bounds range     [1e+00, 1e+00]
  RHS range        [4e-02, 1e+03]
Presolve removed 4 rows and 8 columns
Presolve time: 0.00s
Presolved: 97 rows, 172 columns, 389 nonzeros
Presolved model has 60 SOS constraint(s)
Presolved model has 60 quadratic objective terms
Variable types: 157 continuous, 15 integer (15 binary)

Root relaxation: objective 2.845766e+05, 209 iterations, 0.00 seconds (0.00 work units)

    Nodes    |    Current Node    |     Objective Bounds      |     Work
 Expl Unexpl |  Obj  Depth IntInf | Incumbent    BestBd   Gap | It/Node Time

     0     0 284576.615    0    4          - 284576.615      -     -    0s
H    0     0                    282641.07222 284576.615  0.68%     -    0s
     0     0 282663.939    0    3 282641.072 282663.939  0.01%     -    0s

Cutting planes:
  Relax-and-lift: 1

Explored 1 nodes (214 simplex iterations) in 0.02 seconds (0.00 work units)
Thread count was 8 (of 8 available processors)

Solution count 1: 282641 

Optimal solution found (tolerance 1.00e-04)
Best objective 2.826410722203e+05, best bound 2.826639387402e+05, gap 0.0081%

User-callback calls 226, time in user-callback 0.00 sec
